21	3	3
5	9	7	50	67	61	
0	0	0	0	4	7	2	4	10	4	19	2	3	4	5	6	7	8	9	10	11	12	13	14	15	16	17	18	19	20
4	5	1	1	6	1	10	6	2	1	1	10
115	1	2	2	4	2	4	2	3	9	1	7
2	3	3	1	10	7	5	4	6	9	1	21
230	2	3	1	4	8	6	8	5	4	1	21
3	1	2	1	6	9	1	8	3	1	1	16
1	2	1	1	1	8	1	10	3	2	1	14
150	2	1	1	1	7	3	4	8	6	1	21
3	3	3	1	3	7	3	8	1	8	1	21
359	3	2	1	6	4	5	1	2	10	1	16
169	5	2	1	5	7	8	6	4	10	1	21
4	1	1	2	6	5	8	6	5	1	1	21
5	2	2	1	8	5	7	1	9	4	1	17
3	1	1	1	6	1	1	8	8	1	1	21
3	4	3	2	6	4	5	1	5	6	1	21
313	4	2	2	10	9	3	8	4	7	1	21
255	4	3	1	8	10	1	5	6	5	1	21
2	3	1	2	5	3	10	1	3	8	1	21
6	2	3	2	5	9	9	6	7	6	1	21
106	3	1	2	6	2	10	10	2	4	1	21
0	0	0	0	6	2	3	8	9	7	0
